; SWAP1 POP DUP1 NOT NOT DUP3 => DUP3 DUP2 SWAP3 POP
(set-option :produce-proofs true)
; 
(set-info :status unknown)
(declare-fun storage_t ((_ BitVec 256) (_ BitVec 256) (_ BitVec 256) Int (_ BitVec 256)) (_ BitVec 256))
(declare-fun storage_s ((_ BitVec 256) (_ BitVec 256) (_ BitVec 256) Int (_ BitVec 256)) (_ BitVec 256))
(declare-fun exc_halt_t (Int) Bool)
(declare-fun exc_halt_s (Int) Bool)
(declare-fun stack_t ((_ BitVec 256) (_ BitVec 256) (_ BitVec 256) Int (_ BitVec 6)) (_ BitVec 256))
(declare-fun stack_s ((_ BitVec 256) (_ BitVec 256) (_ BitVec 256) Int (_ BitVec 6)) (_ BitVec 256))
(declare-fun sc_t (Int) (_ BitVec 6))
(declare-fun sc_s (Int) (_ BitVec 6))
(declare-fun used_gas_t ((_ BitVec 256) (_ BitVec 256) (_ BitVec 256) Int) Int)
(declare-fun used_gas_s ((_ BitVec 256) (_ BitVec 256) (_ BitVec 256) Int) Int)
(assert
 (exists ((x_0 (_ BitVec 256)) (x_1 (_ BitVec 256)) (x_2 (_ BitVec 256)) )(let (($x9478 (forall ((w (_ BitVec 256)) )(let ((?x9216 (storage_t x_0 x_1 x_2 4 w)))
 (let ((?x6981 (storage_s x_0 x_1 x_2 6 w)))
 (= ?x6981 ?x9216))))
 ))
 (let (($x3723 (exc_halt_t 4)))
 (let (($x772 (exc_halt_s 6)))
 (let (($x8614 (= $x772 $x3723)))
 (let (($x5770 (forall ((n (_ BitVec 6)) )(let ((?x7196 (stack_t x_0 x_1 x_2 4 n)))
 (let ((?x7180 (stack_s x_0 x_1 x_2 6 n)))
 (let (($x9429 (= ?x7180 ?x7196)))
 (let ((?x3757 (sc_t 4)))
 (let (($x4910 (bvsle ?x3757 n)))
 (or $x4910 $x9429)))))))
 ))
 (let ((?x3757 (sc_t 4)))
 (let ((?x926 (sc_s 6)))
 (let (($x8599 (= ?x926 ?x3757)))
 (let ((?x931 (used_gas_t x_0 x_1 x_2 0)))
 (let ((?x707 (used_gas_s x_0 x_1 x_2 0)))
 (let (($x8810 (= ?x707 ?x931)))
 (let (($x9022 (forall ((w (_ BitVec 256)) )(let ((?x7759 (storage_t x_0 x_1 x_2 0 w)))
 (let ((?x878 (storage_s x_0 x_1 x_2 0 w)))
 (= ?x878 ?x7759))))
 ))
 (let (($x56 (exc_halt_t 0)))
 (let (($x57 (exc_halt_s 0)))
 (let (($x58 (= $x57 $x56)))
 (let (($x6101 (forall ((n (_ BitVec 6)) )(let ((?x9087 (stack_t x_0 x_1 x_2 0 n)))
 (let ((?x9049 (stack_s x_0 x_1 x_2 0 n)))
 (let (($x9089 (= ?x9049 ?x9087)))
 (let ((?x63 (sc_t 0)))
 (let (($x5858 (bvsle ?x63 n)))
 (or $x5858 $x9089)))))))
 ))
 (let ((?x63 (sc_t 0)))
 (let ((?x72 (sc_s 0)))
 (let (($x73 (= ?x72 ?x63)))
 (let (($x5226 (= $x3723 (or (exc_halt_t 3) (not (bvsle (_ bv0 6) (bvadd (_ bv63 6) (sc_t 3))))))))
 (let (($x8990 (forall ((w (_ BitVec 256)) )(let ((?x229 (storage_t x_0 x_1 x_2 3 w)))
 (let ((?x9216 (storage_t x_0 x_1 x_2 4 w)))
 (= ?x9216 ?x229))))
 ))
 (let (($x8979 (forall ((n (_ BitVec 6)) )(let ((?x2012 (sc_t 3)))
 (let ((?x7515 (bvadd (_ bv63 6) ?x2012)))
 (let (($x10870 (bvsle ?x7515 n)))
 (let ((?x864 (stack_t x_0 x_1 x_2 3 n)))
 (let ((?x7196 (stack_t x_0 x_1 x_2 4 n)))
 (or (= ?x7196 ?x864) $x10870)))))))
 ))
 (let ((?x2012 (sc_t 3)))
 (let ((?x7515 (bvadd (_ bv63 6) ?x2012)))
 (let (($x9473 (= ?x3757 ?x7515)))
 (let (($x6911 (= (used_gas_t x_0 x_1 x_2 4) (+ 2 (used_gas_t x_0 x_1 x_2 3)))))
 (let (($x10336 (exc_halt_t 3)))
 (let (($x4967 (= $x10336 (or (exc_halt_t 2) (not (bvsle (_ bv0 6) (bvadd (_ bv60 6) (sc_t 2))))))))
 (let (($x9316 (forall ((w (_ BitVec 256)) )(let ((?x6996 (storage_t x_0 x_1 x_2 2 w)))
 (let ((?x229 (storage_t x_0 x_1 x_2 3 w)))
 (= ?x229 ?x6996))))
 ))
 (let (($x3325 (forall ((n (_ BitVec 6)) )(let ((?x9719 (stack_t x_0 x_1 x_2 2 n)))
 (let ((?x864 (stack_t x_0 x_1 x_2 3 n)))
 (or (= ?x864 ?x9719) (bvsle (bvadd (_ bv60 6) (sc_t 2)) n)))))
 ))
 (let ((?x4056 (sc_t 2)))
 (let (($x5669 (= ?x2012 ?x4056)))
 (let ((?x4230 (used_gas_t x_0 x_1 x_2 3)))
 (let (($x9629 (= (stack_t x_0 x_1 x_2 3 (bvadd (_ bv62 6) ?x2012)) (stack_t x_0 x_1 x_2 2 (bvadd (_ bv62 6) ?x4056)))))
 (let (($x9696 (= (stack_t x_0 x_1 x_2 3 (bvadd (_ bv61 6) ?x2012)) (stack_t x_0 x_1 x_2 2 (bvadd (_ bv61 6) ?x4056)))))
 (let ((?x2421 (bvadd (_ bv63 6) ?x4056)))
 (let ((?x7598 (stack_t x_0 x_1 x_2 2 ?x2421)))
 (let (($x875 (= (stack_t x_0 x_1 x_2 3 ?x7515) (stack_t x_0 x_1 x_2 2 (bvadd (_ bv60 6) ?x4056)))))
 (let (($x1920 (exc_halt_t 1)))
 (let (($x265 (not (= ((_ extract 6 6) (bvadd (_ bv1 7) (concat (_ bv0 1) (sc_t 1)))) (_ bv0 1)))))
 (let (($x903 (exc_halt_t 2)))
 (let (($x9615 (forall ((w (_ BitVec 256)) )(let ((?x7136 (storage_t x_0 x_1 x_2 1 w)))
 (let ((?x6996 (storage_t x_0 x_1 x_2 2 w)))
 (= ?x6996 ?x7136))))
 ))
 (let (($x933 (forall ((n (_ BitVec 6)) )(let ((?x9340 (stack_t x_0 x_1 x_2 1 n)))
 (let ((?x9719 (stack_t x_0 x_1 x_2 2 n)))
 (or (= ?x9719 ?x9340) (bvsle (bvadd (_ bv62 6) (sc_t 1)) n)))))
 ))
 (let (($x8278 (= ?x4056 (bvadd (_ bv1 6) (sc_t 1)))))
 (let ((?x7750 (used_gas_t x_0 x_1 x_2 2)))
 (let ((?x4023 (sc_t 1)))
 (let ((?x5365 (bvadd (_ bv63 6) ?x4023)))
 (let ((?x9470 (stack_t x_0 x_1 x_2 1 ?x5365)))
 (let ((?x5267 (bvadd (_ bv62 6) ?x4023)))
 (let ((?x6533 (stack_t x_0 x_1 x_2 1 ?x5267)))
 (let (($x10887 (not (= ((_ extract 6 6) (bvadd (_ bv1 7) (concat (_ bv0 1) ?x63))) (_ bv0 1)))))
 (let (($x6185 (forall ((w (_ BitVec 256)) )(let ((?x7759 (storage_t x_0 x_1 x_2 0 w)))
 (let ((?x7136 (storage_t x_0 x_1 x_2 1 w)))
 (= ?x7136 ?x7759))))
 ))
 (let (($x6460 (forall ((n (_ BitVec 6)) )(let ((?x9087 (stack_t x_0 x_1 x_2 0 n)))
 (let ((?x9340 (stack_t x_0 x_1 x_2 1 n)))
 (or (= ?x9340 ?x9087) (bvsle (bvadd (_ bv61 6) (sc_t 0)) n)))))
 ))
 (let (($x5939 (= ?x4023 (bvadd (_ bv1 6) ?x63))))
 (let (($x9533 (= (stack_t x_0 x_1 x_2 1 (bvadd (_ bv63 6) ?x63)) (stack_t x_0 x_1 x_2 0 (bvadd (_ bv63 6) ?x63)))))
 (let (($x9175 (= (stack_t x_0 x_1 x_2 1 (bvadd (_ bv62 6) ?x63)) (stack_t x_0 x_1 x_2 0 (bvadd (_ bv62 6) ?x63)))))
 (let ((?x9468 (bvadd (_ bv61 6) ?x63)))
 (let ((?x9439 (stack_t x_0 x_1 x_2 0 ?x9468)))
 (let (($x3979 (exc_halt_s 5)))
 (let (($x6235 (or (not (bvsle (_ bv0 6) (bvadd (_ bv61 6) (sc_s 5)))) $x3979 (not (= ((_ extract 6 6) (bvadd (_ bv1 7) (concat (_ bv0 1) (sc_s 5)))) (_ bv0 1))))))
 (let (($x9625 (forall ((w (_ BitVec 256)) )(let ((?x7127 (storage_s x_0 x_1 x_2 5 w)))
 (let ((?x6981 (storage_s x_0 x_1 x_2 6 w)))
 (= ?x6981 ?x7127))))
 ))
 (let (($x3424 (forall ((n (_ BitVec 6)) )(let ((?x9516 (stack_s x_0 x_1 x_2 5 n)))
 (let ((?x7180 (stack_s x_0 x_1 x_2 6 n)))
 (or (bvsle (bvadd (_ bv61 6) (sc_s 5)) n) (= ?x7180 ?x9516)))))
 ))
 (let (($x7205 (= (used_gas_s x_0 x_1 x_2 6) (+ 3 (used_gas_s x_0 x_1 x_2 5)))))
 (let ((?x805 (sc_s 5)))
 (let ((?x10905 (bvadd (_ bv63 6) ?x805)))
 (let ((?x9336 (stack_s x_0 x_1 x_2 5 ?x10905)))
 (let (($x6164 (= (stack_s x_0 x_1 x_2 6 (bvadd (_ bv62 6) ?x805)) (stack_s x_0 x_1 x_2 5 (bvadd (_ bv62 6) ?x805)))))
 (let ((?x5471 (bvadd (_ bv61 6) ?x805)))
 (let ((?x1741 (stack_s x_0 x_1 x_2 5 ?x5471)))
 (let (($x9660 (= $x3979 (or (exc_halt_s 4) (not (bvsle (_ bv0 6) (bvadd (_ bv63 6) (sc_s 4))))))))
 (let (($x9706 (forall ((w (_ BitVec 256)) )(let ((?x9085 (storage_s x_0 x_1 x_2 4 w)))
 (let ((?x7127 (storage_s x_0 x_1 x_2 5 w)))
 (= ?x7127 ?x9085))))
 ))
 (let (($x9705 (forall ((n (_ BitVec 6)) )(let ((?x9634 (stack_s x_0 x_1 x_2 4 n)))
 (let ((?x9516 (stack_s x_0 x_1 x_2 5 n)))
 (or (= ?x9516 ?x9634) (bvsle (bvadd (_ bv63 6) (sc_s 4)) n)))))
 ))
 (let ((?x4305 (sc_s 4)))
 (let (($x10898 (= ?x805 ?x4305)))
 (let ((?x6522 (used_gas_s x_0 x_1 x_2 5)))
 (let (($x64 (exc_halt_s 4)))
 (let (($x8919 (= $x64 (or (exc_halt_s 3) (not (bvsle (_ bv0 6) (bvadd (_ bv63 6) (sc_s 3))))))))
 (let (($x9335 (forall ((w (_ BitVec 256)) )(let ((?x7724 (storage_s x_0 x_1 x_2 3 w)))
 (let ((?x9085 (storage_s x_0 x_1 x_2 4 w)))
 (= ?x9085 ?x7724))))
 ))
 (let (($x541 (forall ((n (_ BitVec 6)) )(let ((?x8208 (stack_s x_0 x_1 x_2 3 n)))
 (let ((?x9634 (stack_s x_0 x_1 x_2 4 n)))
 (let ((?x275 (sc_s 3)))
 (let ((?x10578 (bvadd (_ bv63 6) ?x275)))
 (let (($x9246 (bvsle ?x10578 n)))
 (or $x9246 (= ?x9634 ?x8208))))))))
 ))
 (let ((?x275 (sc_s 3)))
 (let (($x8390 (= ?x4305 ?x275)))
 (let ((?x3045 (used_gas_s x_0 x_1 x_2 4)))
 (let ((?x10396 (bvadd (_ bv63 6) ?x4305)))
 (let ((?x9451 (stack_s x_0 x_1 x_2 4 ?x10396)))
 (let (($x9170 (not (= ((_ extract 6 6) (bvadd (_ bv1 7) (concat (_ bv0 1) (sc_s 2)))) (_ bv0 1)))))
 (let (($x3375 (not (bvsle (_ bv0 6) (bvadd (_ bv63 6) (sc_s 2))))))
 (let (($x247 (exc_halt_s 2)))
 (let (($x292 (exc_halt_s 3)))
 (let (($x7780 (forall ((w (_ BitVec 256)) )(let ((?x8852 (storage_s x_0 x_1 x_2 2 w)))
 (let ((?x7724 (storage_s x_0 x_1 x_2 3 w)))
 (= ?x7724 ?x8852))))
 ))
 (let (($x6438 (forall ((n (_ BitVec 6)) )(let ((?x218 (sc_s 2)))
 (let ((?x9084 (bvadd (_ bv63 6) ?x218)))
 (let (($x10462 (bvsle ?x9084 n)))
 (let ((?x1228 (stack_s x_0 x_1 x_2 2 n)))
 (let ((?x8208 (stack_s x_0 x_1 x_2 3 n)))
 (or (= ?x8208 ?x1228) $x10462)))))))
 ))
 (let (($x3640 (= ?x275 (bvadd (_ bv1 6) (sc_s 2)))))
 (let ((?x6966 (used_gas_s x_0 x_1 x_2 3)))
 (let ((?x218 (sc_s 2)))
 (let ((?x9084 (bvadd (_ bv63 6) ?x218)))
 (let ((?x5996 (stack_s x_0 x_1 x_2 2 ?x9084)))
 (let (($x7157 (= $x247 (or (exc_halt_s 1) (not (bvsle (_ bv0 6) (bvadd (_ bv63 6) (sc_s 1))))))))
 (let (($x9271 (forall ((w (_ BitVec 256)) )(let ((?x6196 (storage_s x_0 x_1 x_2 1 w)))
 (let ((?x8852 (storage_s x_0 x_1 x_2 2 w)))
 (= ?x8852 ?x6196))))
 ))
 (let (($x1618 (forall ((n (_ BitVec 6)) )(let ((?x9314 (stack_s x_0 x_1 x_2 1 n)))
 (let ((?x1228 (stack_s x_0 x_1 x_2 2 n)))
 (let ((?x154 (sc_s 1)))
 (let ((?x5483 (bvadd (_ bv63 6) ?x154)))
 (let (($x8076 (bvsle ?x5483 n)))
 (or $x8076 (= ?x1228 ?x9314))))))))
 ))
 (let ((?x8022 (used_gas_s x_0 x_1 x_2 2)))
 (let (($x667 (forall ((w (_ BitVec 256)) )(let ((?x878 (storage_s x_0 x_1 x_2 0 w)))
 (let ((?x6196 (storage_s x_0 x_1 x_2 1 w)))
 (= ?x6196 ?x878))))
 ))
 (let (($x7254 (forall ((n (_ BitVec 6)) )(let ((?x9049 (stack_s x_0 x_1 x_2 0 n)))
 (let ((?x9314 (stack_s x_0 x_1 x_2 1 n)))
 (or (= ?x9314 ?x9049) (bvsle (bvadd (_ bv62 6) (sc_s 0)) n)))))
 ))
 (let ((?x154 (sc_s 1)))
 (let (($x6439 (= ?x154 ?x72)))
 (let (($x8982 (= (stack_s x_0 x_1 x_2 1 (bvadd (_ bv62 6) ?x154)) (stack_s x_0 x_1 x_2 0 (bvadd (_ bv63 6) ?x72)))))
 (let (($x9354 (= (stack_s x_0 x_1 x_2 1 (bvadd (_ bv63 6) ?x154)) (stack_s x_0 x_1 x_2 0 (bvadd (_ bv62 6) ?x72)))))
 (let (($x9575 (forall ((w (_ BitVec 256)) )(let ((?x878 (storage_s x_0 x_1 x_2 0 w)))
 (= ?x878 (_ bv0 256))))
 ))
 (let (($x9301 (= ?x707 0)))
 (let (($x4937 (not $x57)))
 (let (($x9115 (= (stack_s x_0 x_1 x_2 0 (_ bv2 6)) x_2)))
 (let (($x6016 (= (stack_s x_0 x_1 x_2 0 (_ bv1 6)) x_1)))
 (let (($x6037 (= (stack_s x_0 x_1 x_2 0 (_ bv0 6)) x_0)))
 (let (($x96 (= ?x72 (_ bv3 6))))
 (and $x96 $x6037 $x6016 $x9115 $x4937 $x9301 $x9575 $x9354 $x8982 (= (used_gas_s x_0 x_1 x_2 1) (+ 3 ?x707)) $x6439 $x7254 $x667 (= (exc_halt_s 1) (or $x57 (not (bvsle (_ bv0 6) (bvadd (_ bv62 6) ?x72))))) (= ?x8022 (+ 2 (used_gas_s x_0 x_1 x_2 1))) (= ?x218 (bvadd (_ bv63 6) ?x154)) $x1618 $x9271 $x7157 (= (stack_s x_0 x_1 x_2 3 (bvadd (_ bv63 6) ?x275)) ?x5996) (= (stack_s x_0 x_1 x_2 3 ?x9084) ?x5996) (= ?x6966 (+ 3 ?x8022)) $x3640 $x6438 $x7780 (= $x292 (or $x247 $x3375 $x9170)) (= ?x9451 (bvnot (stack_s x_0 x_1 x_2 3 (bvadd (_ bv63 6) ?x275)))) (= ?x3045 (+ 3 ?x6966)) $x8390 $x541 $x9335 $x8919 (= ?x9336 (bvnot ?x9451)) (= ?x6522 (+ 3 ?x3045)) $x10898 $x9705 $x9706 $x9660 (= (stack_s x_0 x_1 x_2 6 (bvadd (_ bv63 6) ?x926)) ?x1741) (= (stack_s x_0 x_1 x_2 6 ?x5471) ?x1741) $x6164 (= (stack_s x_0 x_1 x_2 6 ?x10905) ?x9336) $x7205 (= ?x926 (bvadd (_ bv1 6) ?x805)) $x3424 $x9625 (= $x772 $x6235) (= ?x9470 ?x9439) (= (stack_t x_0 x_1 x_2 1 ?x9468) ?x9439) $x9175 $x9533 (= (used_gas_t x_0 x_1 x_2 1) (+ 3 ?x931)) $x5939 $x6460 $x6185 (= $x1920 (or $x56 (not (bvsle (_ bv0 6) ?x9468)) $x10887)) (= ?x7598 ?x6533) (= (stack_t x_0 x_1 x_2 2 ?x5267) ?x6533) (= (stack_t x_0 x_1 x_2 2 ?x5365) ?x9470) (= ?x7750 (+ 3 (used_gas_t x_0 x_1 x_2 1))) $x8278 $x933 $x9615 (= $x903 (or $x265 $x1920 (not (bvsle (_ bv0 6) ?x5267)))) $x875 (= (stack_t x_0 x_1 x_2 3 (bvadd (_ bv60 6) ?x2012)) ?x7598) $x9696 $x9629 (= ?x4230 (+ 3 ?x7750)) $x5669 $x3325 $x9316 $x4967 $x6911 $x9473 $x8979 $x8990 $x5226 $x73 $x6101 $x58 $x9022 $x8810 (not (and $x8599 $x5770 $x8614 $x9478))))))))))))))))))))))))))))))))))))))))))))))))))))))))))))))))))))))))))))))))))))))))))))))))))))))))))))))))))))
 )
(check-sat)
(get-proof)
